Copyright (C) 2013-2015, Filipe Brandao
Build (method = -2)
  #dp: 3309
  Step-3' Graph: 84 vertices and 1435 arcs (0.00s)
  Step-4' Graph: 82 vertices and 1431 arcs (0.00s)
  #V4/#V3 = 0.98
  #A4/#A3 = 1.00
Ready! (0.00s)
Optimize a model with 152 rows, 1432 columns and 4140 nonzeros
Found heuristic solution: objective 165
Presolve removed 29 rows and 39 columns
Presolve time: 0.02s
Presolved: 123 rows, 1393 columns, 4015 nonzeros
Variable types: 0 continuous, 1393 integer (360 binary)
Optimize a model with 123 rows, 1393 columns and 4015 nonzeros
Presolved: 123 rows, 1393 columns, 4015 nonzeros

Root barrier log...

Ordering time: 0.00s

Barrier statistics:
 AA' NZ     : 2.131e+03
 Factor NZ  : 4.181e+03
 Factor Ops : 1.952e+05 (less than 1 second per iteration)
 Threads    : 1

                  Objective                Residual
Iter       Primal          Dual         Primal    Dual     Compl     Time
   0   3.69756549e+03 -1.00976123e+04  2.53e+04 1.51e-01  4.66e+01     0s
   1   9.02136484e+02 -2.97230977e+03  3.13e+03 1.78e-15  6.25e+00     0s
   2   2.57067113e+02 -1.20799493e+03  2.47e+02 9.99e-16  8.41e-01     0s
   3   1.59399137e+02 -2.45348564e+02  2.38e+01 6.66e-16  1.64e-01     0s
   4   1.19333921e+02  7.01949024e+00  2.59e+00 5.41e-16  4.13e-02     0s
   5   1.06352637e+02  3.31036909e+01  1.20e+00 6.97e-16  2.66e-02     0s
   6   9.90026683e+01  6.60421318e+01  6.13e-01 6.42e-16  1.19e-02     0s
   7   9.40284366e+01  7.80494208e+01  1.20e-01 8.16e-16  5.70e-03     0s
   8   9.26625014e+01  8.62231074e+01  3.54e-02 8.66e-16  2.29e-03     0s
   9   9.20299279e+01  8.83460565e+01  1.52e-02 8.95e-16  1.31e-03     0s
  10   9.17170356e+01  9.01910616e+01  5.35e-03 6.16e-16  5.42e-04     0s
  11   9.14530465e+01  9.09907240e+01  7.35e-04 7.14e-16  1.64e-04     0s
  12   9.13917376e+01  9.12437977e+01  1.97e-04 6.73e-16  5.25e-05     0s
  13   9.13731049e+01  9.12907815e+01  1.01e-04 5.85e-16  2.92e-05     0s
  14   9.13610927e+01  9.13430727e+01  2.11e-05 6.41e-16  6.40e-06     0s
  15   9.13572458e+01  9.13565939e+01  3.87e-07 5.55e-16  2.31e-07     0s
  16   9.13571430e+01  9.13571423e+01  5.01e-13 7.10e-16  2.31e-10     0s
  17   9.13571429e+01  9.13571429e+01  3.05e-12 6.66e-16  2.43e-16     0s

Barrier solved model in 17 iterations and 0.01 seconds
Optimal objective 9.13571429e+01


Root relaxation: objective 9.135714e+01, 107 iterations, 0.01 seconds

    Nodes    |    Current Node    |     Objective Bounds      |     Work
 Expl Unexpl |  Obj  Depth IntInf | Incumbent    BestBd   Gap | It/Node Time

     0     0   91.35714    0   30  165.00000   91.35714  44.6%     -    0s
H    0     0                      94.0000000   91.35714  2.81%     -    0s
H    0     0                      92.0000000   91.35714  0.70%     -    0s

Explored 0 nodes (196 simplex iterations) in 0.04 seconds
Thread count was 1 (of 4 available processors)

Optimal solution found (tolerance 0.00e+00)
Best objective 9.200000000000e+01, best bound 9.200000000000e+01, gap 0.0%
Preprocessing time: 0.00 seconds
Gurobi run time: 0.04 seconds
Total run time: 0.04 seconds
Objective: 92
Solution:
1 x [i=1, i=56]
3 x [i=2, i=55]
1 x [i=2, i=56]
1 x [i=3, i=54]
3 x [i=4, i=51]
1 x [i=4, i=53]
4 x [i=5, i=50]
2 x [i=6, i=52]
4 x [i=7, i=49]
1 x [i=7, i=53]
1 x [i=8, i=46]
3 x [i=9, i=47]
1 x [i=9, i=53]
1 x [i=10, i=44]
3 x [i=10, i=48]
2 x [i=11, i=43]
1 x [i=11, i=54]
3 x [i=12, i=42]
2 x [i=12, i=45]
3 x [i=13, i=40]
2 x [i=13, i=41]
2 x [i=14, i=39]
2 x [i=15, i=38]
3 x [i=16, i=37]
1 x [i=16, i=67, i=69]
3 x [i=17, i=36]
3 x [i=17, i=65, i=70]
2 x [i=17, i=66, i=69]
1 x [i=18, i=35]
1 x [i=19, i=34]
3 x [i=19, i=35]
2 x [i=20, i=34]
3 x [i=21, i=33]
1 x [i=22, i=31]
1 x [i=22, i=32]
1 x [i=22, i=33]
3 x [i=23, i=60, i=70]
1 x [i=23, i=61, i=68]
1 x [i=23, i=62, i=68]
1 x [i=24, i=30]
2 x [i=25, i=29]
1 x [i=26, i=28]
1 x [i=26, i=30]
3 x [i=27, i=27]
1 x [i=30, i=59, i=64]
1 x [i=35, i=54, i=63]
1 x [i=35, i=58, i=60]
2 x [i=39, i=57, i=57]
1 x [i=41, i=41]
1 x [i=55, i=63]
